
Gurobi 10.0.3 (linux64, gurobi_cl) logging started Fri Nov 10 18:49:56 2023

Set parameter Username
Set parameter TimeLimit to value 3600
Set parameter LogFile to value "RCPSP_1683.log"
Set parameter Threads to value 32
Academic license - for non-commercial use only - expires 2024-11-06
Using license file /home/jrivera6/gurobi-licenses/v1003/compute-0-36/gurobi.lic

Gurobi Optimizer version 10.0.3 build v10.0.3rc0 (linux64)
Copyright (c) 2023, Gurobi Optimization, LLC

Read MPS format model from file RCPSP_1683.mps
Reading time = 0.16 seconds
RCPSP_1683: 75251 rows, 29890 columns, 237025 nonzeros

CPU model: Intel(R) Xeon(R) Gold 6130 CPU @ 2.10GHz, instruction set [SSE2|AVX|AVX2|AVX512]
Thread count: 32 physical cores, 32 logical processors, using up to 32 threads

Optimize a model with 75251 rows, 29890 columns and 237025 nonzeros
Model fingerprint: 0xd57ab008
Variable types: 122 continuous, 29768 integer (29768 binary)
Coefficient statistics:
  Matrix range     [1e+00, 7e+02]
  Objective range  [1e+00, 1e+00]
  Bounds range     [1e+00, 1e+00]
  RHS range        [1e+00, 7e+02]
Presolve removed 11163 rows and 1597 columns (presolve time = 5s) ...
Presolve removed 12022 rows and 2244 columns
Presolve time: 8.23s
Presolved: 63229 rows, 27646 columns, 207451 nonzeros
Variable types: 121 continuous, 27525 integer (27525 binary)

Deterministic concurrent LP optimizer: primal and dual simplex (primal and dual model)
Showing first log only...

Root relaxation presolved: 63229 rows, 27646 columns, 207451 nonzeros


Root simplex log...

Iteration    Objective       Primal Inf.    Dual Inf.      Time
       0    1.0025679e+02   6.379655e-03   2.258096e+08     11s
    4325    1.0000000e+02   0.000000e+00   0.000000e+00     12s
Concurrent spin time: 3.22s

Solved with dual simplex (primal model)

Root relaxation: objective 1.000000e+02, 10425 iterations, 6.37 seconds (0.49 work units)
Total elapsed time = 20.67s

    Nodes    |    Current Node    |     Objective Bounds      |     Work
 Expl Unexpl |  Obj  Depth IntInf | Incumbent    BestBd   Gap | It/Node Time

     0     0  100.00000    0   22          -  100.00000      -     -   23s
     0     0  100.00000    0  327          -  100.00000      -     -   64s
     0     0  100.00000    0  326          -  100.00000      -     -   66s
H    0     0                     100.0000000  100.00000  0.00%     -   74s
     0     0  100.00000    0  663  100.00000  100.00000  0.00%     -   74s

Cutting planes:
  Gomory: 17
  Lift-and-project: 6
  Cover: 1
  Implied bound: 30
  MIR: 798
  StrongCG: 4
  RLT: 563
  Relax-and-lift: 22

Explored 1 nodes (25843 simplex iterations) in 78.32 seconds (9.48 work units)
Thread count was 32 (of 32 available processors)

Solution count 1: 100 

Optimal solution found (tolerance 1.00e-04)
Best objective 1.000000000000e+02, best bound 1.000000000000e+02, gap 0.0000%

Wrote result file 'RCPSP_1683.sol'

